
nNurses = 240;
hours = 90;
demand = [34 22 29 57 56 19 17 40 41 14 29 22 43 47 19 25 1 50 35 6 29 10 25 33 57 32 35 7 51 41 5 13 8 10 53 19 8 52 24 51 38 2 1 56 59 33 54 23 53 59 39 20 6 16 10 47 32 40 17 7 45 7 35 39 44 10 16 37 30 4 10 48 10 57 9 28 22 25 21 29 45 12 13 1 53 7 59 58 25 12];
minHours = 12;
maxHours = 30;
maxConsec = 18;
maxPresence = 55;